; benchmark generated from python API
(set-info :status unknown)
(declare-fun S_4 () Real)
(declare-fun S_5 () Real)
(declare-fun C () Real)
(declare-fun L0 () Real)
(declare-fun B () Real)
(declare-fun S_0 () Real)
(declare-fun S_3 () Real)
(declare-fun L_0 () Real)
(declare-fun L_1 () Real)
(declare-fun S_2 () Real)
(declare-fun L_3 () Real)
(declare-fun A_4 () Real)
(declare-fun S_1 () Real)
(declare-fun L_2 () Real)
(declare-fun A_3 () Real)
(declare-fun A_2 () Real)
(declare-fun A_5 () Real)
(declare-fun A_1 () Real)
(declare-fun A_0 () Real)
(assert
 (let (($x42 (>= L0 0.0)))
 (let (($x692 (>= C 5.0)))
 (let (($x863 (>= B 5.0)))
 (let (($x967 (not (<= L_1 L_0))))
 (let ((?x305 (* (- 1.0) L_3)))
 (let ((?x959 (+ A_4 ?x305)))
 (let (($x994 (>= S_5 ?x959)))
 (let (($x17063 (or $x967 $x994 (<= (+ (* 4.0 C) (* (- 1.0) S_5) S_0) 0.0))))
 (let (($x17003 (or $x967 $x994 (<= (+ (* 3.0 C) S_1 (* (- 1.0) S_5)) 0.0))))
 (let ((?x564 (* (- 1.0) L_2)))
 (let ((?x1048 (+ A_3 ?x564)))
 (let (($x2900 (>= S_4 ?x1048)))
 (let (($x16862 (or $x994 $x2900 (<= (+ (* 2.0 C) S_2 (* (- 1.0) S_5)) 0.0))))
 (let ((?x1341 (* 2.0 C)))
 (let ((?x389 (* (- 1.0) L_1)))
 (let ((?x586 (* (- 1.0) A_4)))
 (let (($x2910 (= L_3 L_1)))
 (let (($x1777 (not (= L_1 L_2))))
 (let (($x542 (or $x967 $x1777 $x2910 (<= (+ A_2 (* (- 1.0) L_0) L_3 (* (- 1.0) A_3) C) 0.0))))
 (let (($x79 (= L_3 L_2)))
 (let (($x16600 (or $x79 $x967 (<= S_1 (+ (* (- 1.0) B) ?x305 A_3 (* (- 2.0) C))))))
 (let (($x16323 (or $x79 $x967 (<= S_0 (+ (* (- 1.0) B) ?x305 A_3 (* (- 3.0) C))))))
 (let (($x1485 (not (= L_0 L_1))))
 (let (($x16381 (or $x79 $x1485 (<= (+ A_1 (* (- 1.0) L_0) L_3 (* (- 1.0) A_3) ?x1341) 0.0))))
 (let (($x10842 (<= A_2 (+ A_1 (* (- 1.0) B) C))))
 (let (($x10845 (not $x10842)))
 (let (($x16688 (or $x994 $x10845 (>= S_5 (+ A_3 ?x389 C)) (>= S_5 (+ A_2 ?x389 ?x1341)))))
 (let (($x1860 (not (= L_1 L_3))))
 (let (($x59 (= L_1 L_0)))
 (let ((?x11097 (+ A_3 ?x564 C)))
 (let (($x11110 (>= S_5 ?x11097)))
 (let (($x16456 (or $x994 $x10842 $x11110 (>= S_5 (+ A_1 ?x389 (* (- 1.0) B) (* 3.0 C))))))
 (let (($x1419 (not (= L_2 L_3))))
 (let (($x976 (not (<= L_2 L_1))))
 (let (($x16525 (or $x59 $x976 $x1419 (<= (+ A_3 (* (- 1.0) A_1) (* (- 2.0) C)) 0.0))))
 (let (($x16437 (or (not (= (+ A_2 ?x564) (+ A_1 ?x389 C))) (<= S_5 (+ A_5 ?x586 A_2 ?x564 ?x1341)))))
 (let (($x10710 (<= A_3 (+ A_2 (* (- 1.0) B) C))))
 (let (($x10996 (not $x10710)))
 (let (($x69 (= L_2 L_1)))
 (let (($x16517 (or $x59 $x1777 (<= (+ A_2 (* (- 1.0) A_1) (* (- 1.0) C)) 0.0))))
 (let (($x11524 (or $x2910 $x10845 (= (+ A_3 ?x305 (* (- 1.0) B)) (+ A_2 ?x389 C)))))
 (let (($x10902 (or $x69 (<= (+ A_3 (* (- 1.0) A_2) (* (- 1.0) C)) 0.0) $x1419)))
 (let ((?x638 (* (- 1.0) B)))
 (let ((?x10811 (+ A_3 ?x305 ?x638 C)))
 (let (($x10812 (>= S_5 ?x10811)))
 (let (($x10734 (<= (+ A_1 (* (- 1.0) L_0) L_2 (* (- 1.0) A_2) C) 0.0)))
 (let (($x1916 (= L_2 L_0)))
 (let (($x41 (>= L_0 L0)))
 (let (($x131 (>= S_1 S_0)))
 (let (($x134 (>= S_2 S_1)))
 (let (($x137 (>= S_3 S_2)))
 (let (($x140 (>= S_4 S_3)))
 (let (($x145 (>= A_1 A_0)))
 (let (($x146 (>= A_2 A_1)))
 (let (($x147 (>= A_3 A_2)))
 (let (($x148 (>= A_4 A_3)))
 (let (($x149 (>= A_5 A_4)))
 (and (<= (+ A_2 ?x564) S_5) (not (<= (+ A_0 (* (- 1.0) L_0)) S_4)) $x149 $x148 $x147 $x146 $x145 $x140 $x137 $x134 $x131 $x41 (or $x79 (<= S_3 (+ A_3 ?x305 ?x638))) (or $x69 (<= S_2 (+ A_2 ?x564 ?x638))) (or $x59 (<= S_1 (+ A_1 ?x389 ?x638))) (or $x59 (<= S_0 (+ ?x638 ?x389 A_1 (* (- 1.0) C)))) (<= S_5 (+ A_5 ?x305)) (>= S_4 (+ A_3 ?x305 ?x638)) (>= S_3 (+ A_2 ?x564 ?x638)) (or $x79 (not (<= L_3 L_2))) (>= S_2 (+ A_1 ?x389 ?x638)) (or $x69 (<= S_1 (+ ?x638 ?x564 A_2 (* (- 1.0) C)))) (or $x1485 $x1916 $x10734) (or (<= S_0 (+ ?x638 ?x564 A_2 (* (- 2.0) C))) $x1916 (not $x10734)) (or $x59 $x967) (or $x59 $x69 (= (+ A_2 ?x564) (+ A_1 ?x389 C))) (or $x69 $x79 (= (+ A_3 ?x305) (+ A_2 ?x564 C))) (>= S_1 (+ ?x638 ?x389 A_1 (* (- 1.0) C))) (>= S_0 (+ ?x638 ?x389 A_1 (* (- 2.0) C))) (or (<= A_4 (+ A_3 ?x638 C)) $x10812) (or (not (= L_0 L_2)) $x10845) (or $x1485 (>= S_3 (+ A_1 (* (- 1.0) L_0) ?x638 C))) (>= S_0 (+ ?x638 ?x564 A_2 (* (- 3.0) C))) (>= S_1 (+ ?x638 ?x564 A_2 (* (- 2.0) C))) $x10902 (or $x79 (<= S_5 (+ A_5 ?x586 A_3 ?x305 C))) (or $x59 (<= S_2 (+ A_1 ?x389 ?x638 C))) (or $x994 $x10812) (or (>= S_3 (+ A_1 ?x389 ?x638 C)) $x10842) (or $x59 $x79 $x10842 (= (+ A_3 ?x305) (+ A_1 ?x389 ?x1341))) (or $x69 $x976) (or (>= S_3 (+ A_2 ?x389)) $x10845) $x11524 $x16517 (or (>= S_4 (+ A_2 ?x564 ?x638 C)) $x10710) (or $x69 (<= S_3 (+ A_2 ?x564 ?x638 C))) (or $x2900 $x10996) (<= S_4 ?x959) (<= S_5 (+ A_4 ?x305 C)) (or $x79 (<= S_4 ?x10811)) (or $x79 (<= S_5 (+ A_3 ?x305 ?x638 ?x1341))) (or $x69 (<= S_4 (+ A_2 ?x564 ?x638 ?x1341))) (>= S_2 (+ ?x638 ?x564 A_2 (* (- 1.0) C))) (or $x69 (<= S_5 (+ A_2 ?x564 ?x638 (* 3.0 C)))) (<= S_2 (+ A_2 ?x389)) (<= S_4 ?x11097) (or (>= S_5 (+ A_2 ?x564 ?x638 ?x1341)) $x994 $x10710) (or (>= S_5 (+ A_4 ?x564)) $x10996 $x11110) $x16437 (<= S_3 ?x1048) (or $x59 (<= S_4 (+ A_1 ?x389 ?x638 (* 3.0 C)))) (or $x2900 $x10842 (>= S_4 (+ A_1 ?x389 ?x638 ?x1341))) $x16525 $x16456 (or $x59 (<= S_3 (+ A_1 ?x389 ?x638 ?x1341))) (or $x59 (<= S_5 (+ A_1 ?x389 ?x638 (* 4.0 C)))) (<= S_5 (+ A_3 ?x564 ?x1341)) (or (>= S_4 (+ A_3 ?x389)) $x10845 (>= S_4 (+ A_2 ?x389 C))) (or $x1860 (<= (+ A_3 (* (- 1.0) A_2) (* (- 1.0) C)) B)) $x16688 (<= S_3 (+ A_2 ?x389 C)) (<= S_4 (+ A_2 ?x389 ?x1341)) (<= S_5 (+ A_2 ?x389 (* 3.0 C))) (>= S_3 (+ ?x638 ?x305 A_3 (* (- 1.0) C))) (>= S_2 (+ ?x638 ?x305 A_3 (* (- 2.0) C))) $x16381 (or $x79 (<= S_2 (+ ?x638 ?x305 A_3 (* (- 1.0) C)))) (>= S_0 (+ ?x638 ?x305 A_3 (* (- 4.0) C))) (>= S_1 (+ ?x638 ?x305 A_3 (* (- 3.0) C))) $x16323 $x16600 $x542 (<= S_5 (+ A_5 ?x586 A_3 ?x564 C B)) (<= S_5 (+ A_5 ?x586 A_1 ?x389 (* 3.0 C))) (<= S_5 (+ A_5 ?x586 A_2 ?x389 ?x1341 B)) (<= (+ C (* (- 1.0) S_2) S_0) 0.0) (<= (+ (* (- 2.0) C) (* (- 1.0) S_1) S_2) 0.0) (<= (+ (* (- 2.0) C) (* (- 1.0) S_2) S_3) 0.0) (<= (+ (* (- 3.0) C) (* (- 1.0) S_1) S_3) 0.0) (<= (+ (* (- 5.0) C) (* (- 1.0) S_1) S_5) 0.0) (or $x967 (<= (+ C S_1 (* (- 1.0) S_3)) 0.0)) (<= (+ (* (- 3.0) C) (* (- 1.0) S_3) S_5) 0.0) (<= (+ (* (- 4.0) C) (* (- 1.0) S_2) S_5) 0.0) (<= (+ (* (- 4.0) C) S_3 (* (- 1.0) S_0)) 0.0) (or $x967 (<= (+ ?x1341 S_1 (* (- 1.0) S_4)) 0.0)) (or $x994 (<= (+ C S_3 (* (- 1.0) S_5)) 0.0)) (<= (+ (* (- 3.0) C) S_2 (* (- 1.0) S_0)) 0.0) (<= (+ (* (- 6.0) C) S_5 (* (- 1.0) S_0)) 0.0) (<= (+ (* (- 4.0) C) (* (- 1.0) S_1) S_4) 0.0) (<= (+ (* (- 5.0) C) (* (- 1.0) S_0) S_4) 0.0) (or $x2900 (<= (+ C S_2 (* (- 1.0) S_4)) 0.0)) (<= (+ (* (- 2.0) C) S_1 (* (- 1.0) S_0)) 0.0) (or $x967 (<= (+ (* 3.0 C) S_0 (* (- 1.0) S_4)) 0.0)) $x16862 $x17003 $x17063 (<= (+ (* (- 2.0) C) (* (- 1.0) S_3) S_4) 0.0) (<= (+ (* (- 3.0) C) (* (- 1.0) S_2) S_4) 0.0) (or $x967 (<= (+ ?x1341 (* (- 1.0) S_3) S_0) 0.0)) $x863 $x692 $x42 (<= (+ (* (- 2.0) C) S_5 (* (- 1.0) S_4)) 0.0))))))))))))))))))))))))))))))))))))))))))))))))))))))))))))
(check-sat)
